max.lp
Problem
 rtr
Maximize
 COST:   X1 + 2 X2 + X3 - X4 - 6 X5
Subject To
  EQN1:  -1 X1 + 5 X2 + X3 + X4 + X5 = 10
  EQN2:  2 X1 - X2 + X3 - 3 X4 = 6
  EQN3:  10 X2 + X3 + 2 X4 + 3 X5 = 25
Bounds
  0 <= X1
  0 <= X2
  0 <= X3
  0 <= X4
  0 <= X5
End
