max.lp.mps
NAME    rtr
OBJSENSE
  MAX
OBJNAME
  COST
ROWS
 N  COST
 E  EQN1
 E  EQN2
 E  EQN3
COLUMNS
  X1    COST    1
  X1    EQN2    2
  X1    EQN1    -1
  X2    COST    2
  X2    EQN3    10
  X2    EQN2    -1
  X2    EQN1    5
  X3    COST    1
  X3    EQN3    1
  X3    EQN2    1
  X3    EQN1    1
  X4    COST    -1
  X4    EQN3    2
  X4    EQN2    -3
  X4    EQN1    1
  X5    COST    -6
  X5    EQN3    3
  X5    EQN1    1
RHS
 RHS    EQN1    10
 RHS    EQN2    6
 RHS    EQN3    25
ENDATA
